p cnf 20 9
c minmax.ite is the BDD counterpart to this file.
#1 [ 1 6 11 16 ] 3
#1 [ 2 7 12 17 ] 2
#1 [ 3 8 13 18 ] 1
#2 [ 4 9 14 19 ] 4
#0 [ 5 10 15 20 ] 1
-1 -2 -3 -4 -5 0
-6 -7 -8 -9 -10 0
-11 -12 -13 -14 -15 0
-16 -17 -18 -19 -20 0
